9182
9182
9182
9182
9182
9182
9182
9182
9182
9182
8948
8948
8948
8948
8948
8948
8948
8948
8948
8948
8948
8948
8948
8948
8948
8948
8948
8948
8948
8948
8948
8948
8948
8948
8948
8948
8948
8948
8948
8948
8948
8948
8948
8948
8948
8948
8948
8948
8948
8948
8948
8948
8948
8948
8948
8948
8948
8948
8948
8948
8865
8865
8865
8865
8865
8865
8865
8865
8865
8865
8865
8865
8865
8865
8865
8865
8865
8865
8865
8865
8865
8865
8865
8865
8865
8865
8865
8865
8865
8865
8865
8865
8865
8865
8865
8865
8865
8865
8865
8865
8865
8865
8865
8865
8865
8865
8865
8865
8865
8865
8865
8865
8865
8865
8865
8865
8865
8865
8865
8865
8865
8865
8865
8865
8865
8865
8865
8865
8865
8800
8800
8800
8800
8800
8800
8800
8576
8576
8576
8576
8576
8576
8576
8576
8576
8576
8576
8576
8576
8576
8576
8576
8576
8576
8576
8576
8576
8576
8576
8576
8576
8576
8576
8576
8576
8576
8576
8576
8576
8576
8576
8576
8576
8576
8576
8576
8576
8576
8576
8576
8576
8576
8576
8576
8576
8576
8576
8576
8576
8576
8576
8576
8576
8576
8576
8576
8576
8576
8576
8576
8576
8576
8576
8576
8576
8576
8576
8576
8576
8576
8576
8576
8576
8576
8576
8576
8576
8576
8576
8576
8576
8576
8576
8576
8576
8576
8576
8576
8576
8576
8576
8576
8576
8576
8576
8576
8576
8576
8576
8576
8576
8576
8576
8576
8576
8576
8576
8576
8576
8576
8576
8576
8576
8576
8576
8576
8576
8576
8576
8576
8576
8576
8576
8576
8576
8576
8576
8576
8576
8576
8576
8576
8576
8576
8576
8576
8576
8576
8576
8576
8576
8576
8576
8576
8576
8576
8576
8576
8576
8576
8576
8576
8576
8576
8576
8576
8576
8576
8576
8576
8576
8576
8576
8576
8576
8576
8576
8576
8576
8576
8576
8576
8576
8576
8576
8576
8576
8576
8576
8576
8576
8576
8576
8576
8576
8576
8576
8576
8576
8576
8576
8576
8576
8576
8576
8576
8576
8576
8576
8576
8576
8576
8576
8576
8576
8576
8576
8576
8576
8576
8576
8576
8576
8576
8576
8576
8576
8576
8576
8576
8576
8576
8576
8576
8576
8576
8576
8576
8576
8576
8576
8576
8576
8576
8576
8576
8576
8576
8576
8576
8576
8576
8576
8576
8576
8576
8576
8576
8576
8576
8576
8576
8576
8576
8576
8576
8576
8576
8576
8576
8576
8576
8576
8576
8576
8576
8576
8576
8576
8576
8576
8576
8576
8576
8576
8576
8576
8576
8576
8576
8576
8576
8576
8576
8576
8576
8576
8576
8576
8576
8576
8576
8576
8576
8576
8576
8576
8576
8576
8576
8576
8576
8576
8576
8576
8576
8576
8576
8576
8576
8576
8576
8576
8576
8576
8576
8576
8576
8576
8576
8576
8576
8576
8576
8576
8576
8576
8576
8576
8576
8576
8576
8576
8576
8576
8576
8576
8576
8576
8576
8576
8576
8576
8576
8576
8576
8576
8576
8576
8576
8576
8576
8576
8576
8576
8576
8576
8576
8576
8576
8576
8576
8576
8576
8576
8576
8576
8576
8576
8576
8576
8576
8576
8576
8576
8576
8576
8576
8576
8576
8576
8576
8576
8576
8576
8576
8576
8576
8576
8576
8576
8576
8576
8576
8576
8576
8576
8576
8576
8576
8576
8576
8576
8576
8576
8576
8576
8576
8429
8429
8429
8429
8429
8429
8429
8429
8429
8429
8429
8429
8429
8429
8429
8429
8429
8429
8429
8429
8429
8429
8429
8429
8429
8429
8429
8429
8429
8429
8429
8429
8429
8429
8429
8429
8429
8429
8429
8429
8429
8429
8429
8429
8429
8429
8429
8429
8429
8429
8429
8429
8429
8429
8429
8429
8429
8429
8429
8429
8429
8429
8429
8429
8429
8429
8429
8429
8429
8429
8429
8429
8429
8429
8429
8429
8429
8429
8429
8429
8429
8429
8429
8429
8429
8429
8429
8429
8429
8429
8429
8429
8429
8429
8429
8429
8429
8429
8429
8429
8429
8429
8429
8429
8429
8429
8429
8429
8429
8429
8429
8429
8429
8429
8429
8429
8429
8429
8429
8429
8429
8429
8429
8429
8429
8429
8429
8429
8429
8429
8429
8429
8429
8429
8429
8429
8429
8429
8429
8429
8429
8429
8429
8429
8429
8429
8429
8429
8429
8429
8429
8429
8429
8429
8429
8429
8429
8429
8429
8429
8429
8429
8429
8429
8429
8429
8429
8429
8429
8429
8429
8429
8429
8429
8429
8429
8429
8429
8429
8429
8429
8429
8429
8429
8429
8429
8429
8429
8429
8429
8429
8429
8429
8429
8429
8429
8429
8429
8429
8429
8429
8429
8429
8429
8429
8429
8429
8429
8429
8429
8429
8429
8429
8429
8429
8429
8429
8429
8429
8429
8429
8429
8429
8429
8429
8429
8429
8429
8429
8429
8429
8429
8429
8429
8429
8429
8429
8429
8429
8429
8429
8429
8429
8429
8429
8429
8429
8429
8429
8429
8429
8429
8429
8429
8429
8429
8429
8429
8429
8429
8429
8429
8429
8429
8429
8429
8429
8429
8429
8429
8429
8429
8429
8429
8429
8429
8429
8429
8429
8429
8429
8429
8429
8429
8429
8429
8429
8429
8429
8429
8429
8429
8429
8429
8429
8429
8429
8429
8429
8429
8429
8429
8429
8429
8429
8429
8429
8429
8429
8429
8429
8429
8429
8429
8429
8429
8429
8429
8429
8429
8429
8429
8429
8429
8429
8429
8429
8429
8429
8429
8429
8429
8429
8429
8429
8429
8429
8429
8429
8429
8429
8429
8429
8429
8429
8429
8429
8429
8429
8429
8429
8429
8429
8429
8429
8429
8429
8429
8429
8429
8429
8429
8429
8429
8429
8429
8429
8429
8429
8429
8429
8429
8429
8429
8429
8429
8429
8429
8429
8429
8429
8429
8429
8429
8429
8429
8429
8429
8429
8429
8429
8429
8429
8429
8429
8429
8429
8429
8429
8429
8429
8429
8429
8429
8429
8429
8429
8429
8429
8429
8429
8429
8429
8429
8429
8429
8429
8429
8429
8429
8429
8429
8429
8429
8429
8429
8429
8429
8429
8429
8429
8429
8429
8429
8429
8429
8429
8429
8429
8429
8429
8429
8429
8429
8429
8429
8429
8429
8429
8429
8429
8429
8429
8429
8429
8429
8429
8429
8429
8429
8429
8429
8429
8429
8429
8429
8429
8429
8429
8429
8429
8429
8429
8429
8429
8429
8429
8429
8429
8429
8429
8429
8429
8429
8429
8429
8429
8429
8429
8429
8429
8429
8429
8429
8429
8429
8429
8429
8429
8429
8429
8429
8429
8429
8429
8429
8429
8429
8429
8429
8429
8429
8429
8429
8429
8429
8429
8429
8429
8429
8429
8429
8429
8429
8429
8429
8429
8429
8429
8429
8429
8429
8429
8429
8429
8429
8429
8429
8429
8429
8429
8429
8429
8429
8429
8429
8429
8429
8429
8429
8429
8429
8429
8429
8429
8429
8429
8429
8429
8429
8429
8429
8429
8429
8429
8429
8429
8429
8429
8429
8429
8429
8429
8429
8429
8429
8429
8429
8429
8429
8429
8429
8429
8429
8429
8429
8429
8429
8429
8429
8429
8429
8429
8429
8429
8429
8429
8429
8429
8429
8429
8429
8429
8429
8429
8429
8429
8429
8429
8429
8429
8429
8429
8429
8429
8429
8429
8429
8429
8429
8429
8429
8429
8429
8429
8429
8429
8429
8429
8429
8429
8429
8429
8429
8429
8429
8429
8429
8429
8429
8429
8429
8429
8429
8429
8429
8429
8429
8429
8429
8429
8429
8429
8429
8429
8429
8429
8429
8429
8429
8429
8429
8429
8429
8429
8429
8429
8429
8429
8429
8429
8429
8429
8429
8429
8429
8429
8429
8429
8429
8429
8429
8429
8429
8429
8429
8429
8429
8429
8429
8429
8429
8429
8429
8429
8429
8429
8429
8429
8429
8429
8429
8429
8429
8429
8429
8429
8429
8429
8429
8429
8429
8429
8429
8429
8429
8429
8429
8429
8429
8429
8429
8429
8429
8429
8429
8429
8429
8429
8429
8429
8429
8429
8429
8429
8429
8429
8429
8429
8429
8429
8429
8429
8429
8429
8429
8429
8429
8429
8429
8429
8429
8429
8429
8429
8429
8429
8429
8429
8429
8429
8429
8429
8429
8429
8429
8429
8429
8429
8429
8429
8429
8429
8429
8429
8429
8429
8429
8429
8429
8429
8429
8429
8429
8429
8429
8429
8429
8429
8429
8429
8429
8429
8429
8429
8429
8429
8429
8429
8429
8429
8429
8429
8429
8429
8429
8429
8429
8429
8429
8429
8429
8429
8429
8429
8429
8429
8429
8429
8429
8429
8429
8429
8429
8429
8429
8429
8429
8429
8429
8429
8429
8429
8429
8429
8429
8429
8429
8429
8429
8429
8429
8429
8429
8429
8429
8429
8429
8429
8429
8429
8429
8429
8429
8429
8429
8429
8429
8429
8429
8429
8429
8429
8429
8429
8429
8429
8429
8429
8429
8429
8429
8429
8429
8429
8429
8429
8429
8429
8429
8429
8429
8429
8429
8429
8429
8429
8429
8429
8429
8429
8429
8429
8429
8429
8429
8429
8429
8429
8429
8429
8429
8429
8429
8429
8429
8429
8429
8429
8429
8429
8429
8429
8429
8429
8429
8429
8429
8429
8429
8429
8429
8429
8429
8429
8429
8429
8429
8429
8429
8429
8429
8429
8429
8429
8429
8429
8429
8429
8429
8429
8429
8429
8429
8429
8429
8429
8429
8429
8429
8429
8429
8429
8429
8429
8429
8429
8429
8429
8429
8429
8429
8429
8429
8429
8429
8429
8429
8429
8429
8429
8429
8429
8429
8429
8429
8429
8429
8429
8429
8429
8429
8429
8429
8429
8429
8429
8429
8429
8429
8429
8429
8429
8429
8429
8429
8429
8429
8429
8429
8429
8429
8429
8429
8429
8429
8429
8429
8429
8429
8429
8429
8429
8429
8429
8429
8429
8429
8429
8429
8429
8429
8429
8429
8429
8429
8429
8429
8429
8429
8429
8429
8429
8429
8429
8429
8429
8429
8429
8429
8429
8429
8429
8429
8429
8429
8429
8429
8429
8429
8429
8429
8429
8429
8429
8429
8429
8429
8429
8429
8429
8429
8429
8429
8429
8429
8429
8429
8429
8429
8429
8429
8429
8429
8429
8429
8429
8429
8429
8429
8429
8429
8429
8429
8429
8429
8429
8429
8429
8429
8429
8429
8429
8429
8429
8429
8429
8429
8429
8429
8429
8429
8429
8429
8429
8429
8429
8429
8429
8429
8429
8429
8429
8429
8429
8429
8429
8429
8429
8429
8429
8429
8429
8429
8429
8429
8429
8429
8429
8429
8429
8429
8429
8429
8429
8429
8429
8429
8429
8429
8429
8429
8429
8429
8429
8429
8429
8429
8429
8429
8429
8429
8429
8429
8429
8429
8429
8429
8429
8429
8429
8429
8429
8429
8429
8429
8429
8429
8429
8429
8429
8429
8429
8429
8429
8429
8429
8429
8429
8429
8429
8429
8429
8429
8429
8429
8429
8429
8429
8429
8429
8429
8429
8429
8429
8429
8429
8429
8429
8429
8429
8429
8429
8429
8429
8429
8429
8429
8429
8429
8429
8429
8429
8429
8429
8429
8429
8429
8429
8429
8429
8429
8429
8429
8429
8429
8429
8429
8429
8429
8429
8429
8429
8429
8429
8429
8429
8429
8429
8429
8429
8429
8429
8429
8429
8429
8429
8429
8429
8429
8429
8429
8429
8429
8429
8429
8429
8429
8429
8429
8429
8429
8429
8429
8429
8429
8429
8429
8429
8429
8429
8429
8429
8429
8429
8429
8429
8429
8429
8409
8409
8409
8409
8409
8409
8409
8409
8409
8409
8409
8409
8409
8409
8409
8409
8409
8409
8409
8409
8409
8409
8409
8409
8409
8409
8409
8409
8409
8409
8409
8409
8409
8409
8409
8409
8409
8409
8409
8409
8409
8409
8409
8409
8409
8409
8409
8409
8409
8409
8409
8409
8409
8409
8409
8409
8409
8409
8409
8409
8409
8409
8409
8409
8409
8409
8409
8409
8409
8409
8409
8409
8409
8409
8409
8409
8409
8409
8409
8409
8409
8409
8409
8409
8409
8409
8409
8409
8409
8409
8409
8409
8409
8409
8409
8409
8409
8409
8409
8409
8409
8409
8409
8409
8409
8409
8409
8409
8409
8409
8409
8409
8409
8409
8409
8409
8409
8409
8409
8409
8409
8409
8409
8409
8409
8409
8409
8409
8409
8409
8409
8409
8409
8409
8409
8409
8409
8409
8409
8409
8409
8409
8409
8409
8409
8409
8409
8409
8409
8409
8409
8409
8409
8409
8409
8409
8409
8409
8409
8409
8409
8409
8409
8409
8409
8409
8409
8409
8409
8409
8409
8409
9182
9182
9182
9182
9182
9182
9182
9182
9182
9182
8948
8948
8948
8948
8948
8948
8948
8948
8948
8948
8948
8948
8948
8948
8948
8948
8948
8948
8948
8948
8948
8948
8948
8948
8948
8948
8948
8948
8948
8948
8948
8948
8948
8948
8948
8948
8948
8948
8948
8948
8948
8948
8948
8948
8948
8948
8948
8948
8948
8948
8865
8865
8865
8865
8865
8865
8865
8865
8865
8865
8865
8865
8865
8865
8865
8865
8865
8865
8865
8865
8865
8865
8865
8865
8865
8865
8865
8865
8865
8865
8865
8865
8865
8865
8865
8865
8865
8865
8865
8865
8865
8865
8865
8865
8865
8865
8865
8865
8865
8865
8865
8865
8865
8865
8865
8865
8865
8865
8865
8865
8865
8865
8865
8865
8865
8865
8865
8865
8865
8800
8800
8800
8800
8800
8800
8800
8576
8576
8576
8576
8576
8576
8576
8576
8576
8576
8576
8576
8576
8576
8576
8576
8576
8576
8576
8576
8576
8576
8576
8576
8576
8576
8576
8576
8576
8576
8576
8576
8576
8576
8576
8576
8576
8576
8576
8576
8576
8576
8576
8576
8576
8576
8576
8576
8576
8576
8576
8576
8576
8576
8576
8576
8576
8576
8576
8576
8576
8576
8576
8576
8576
8576
8576
8576
8576
8576
8576
8576
8576
8576
8576
